NAME : instances/20-120-tsp/instance-22.tsp
COMMENT : No Comment
TYPE : TSP
DIMENSION: 22
EDGE_WEIGHT_TYPE : EUC_2D
NODE_COORD_SECTION
1 830 46 
2 5180 6615 
3 412 2466 
4 2926 129 
5 6306 5211 
6 202 5695 
7 1361 1792 
8 9853 4600 
9 4985 7778 
10 1788 6106 
11 201 3973 
12 8803 2264 
13 1 4760 
14 2210 1555 
15 6857 9601 
16 3578 8541 
17 5509 72 
18 3497 7420 
19 974 9292 
20 7979 9339 
21 493 5715 
22 6671 6382 
EOF
